DIMACS_lns/graph-1000-599.col
p edge 1000 1848
e 1 543
e 1 385
e 1 370
e 1 853
e 2 299
e 2 146
e 2 195
e 2 770
e 2 85
e 4 853
e 4 779
e 4 212
e 5 624
e 5 681
e 5 905
e 6 719
e 6 745
e 6 622
e 6 439
e 6 717
e 8 822
e 8 515
e 8 343
e 8 107
e 8 762
e 10 918
e 10 703
e 10 201
e 10 641
e 11 969
e 11 455
e 11 689
e 11 210
e 12 327
e 12 203
e 12 802
e 12 307
e 12 586
e 15 333
e 15 97
e 15 976
e 15 432
e 16 20
e 16 983
e 16 278
e 16 812
e 16 470
e 16 253
e 16 734
e 18 509
e 18 59
e 18 457
e 19 818
e 19 124
e 19 136
e 19 529
e 19 503
e 19 773
e 19 797
e 20 748
e 20 662
e 20 985
e 20 943
e 21 671
e 21 331
e 21 829
e 22 165
e 22 929
e 22 753
e 22 320
e 22 305
e 22 857
e 23 282
e 23 31
e 23 249
e 23 913
e 24 70
e 24 1000
e 24 840
e 24 542
e 24 251
e 24 156
e 25 327
e 25 546
e 25 671
e 26 765
e 26 846
e 26 368
e 26 434
e 26 591
e 26 655
e 27 484
e 27 707
e 27 79
e 27 833
e 28 670
e 28 389
e 28 901
e 28 697
e 28 860
e 30 41
e 30 68
e 30 913
e 31 365
e 31 731
e 31 56
e 31 889
e 31 625
e 31 653
e 32 907
e 32 440
e 32 594
e 33 274
e 33 73
e 33 668
e 34 375
e 34 133
e 34 690
e 35 816
e 35 933
e 35 772
e 36 964
e 36 44
e 36 109
e 36 707
e 36 208
e 36 469
e 36 274
e 36 155
e 36 988
e 36 488
e 38 875
e 38 898
e 38 393
e 38 98
e 38 314
e 39 145
e 39 483
e 39 713
e 39 449
e 39 481
e 40 408
e 40 606
e 40 968
e 40 245
e 40 722
e 41 966
e 41 379
e 41 578
e 41 751
e 41 524
e 44 860
e 44 511
e 45 543
e 45 593
e 45 999
e 45 575
e 45 817
e 45 907
e 47 78
e 47 320
e 47 548
e 47 770
e 47 223
e 47 615
e 48 80
e 48 906
e 48 584
e 50 152
e 50 172
e 50 189
e 52 977
e 52 170
e 52 974
e 53 915
e 53 231
e 53 919
e 54 304
e 54 357
e 54 741
e 55 225
e 55 640
e 55 390
e 55 259
e 55 138
e 56 570
e 56 927
e 56 972
e 56 86
e 56 924
e 57 801
e 57 75
e 57 153
e 57 513
e 58 981
e 58 945
e 58 481
e 58 732
e 59 647
e 59 921
e 59 161
e 59 212
e 60 591
e 60 819
e 60 544
e 60 419
e 61 708
e 61 197
e 61 856
e 62 94
e 62 517
e 62 393
e 62 595
e 62 602
e 62 544
e 62 529
e 63 746
e 63 801
e 63 871
e 65 927
e 65 918
e 65 517
e 65 686
e 65 668
e 65 321
e 65 824
e 67 842
e 67 868
e 67 284
e 67 488
e 67 918
e 67 825
e 68 590
e 68 229
e 68 98
e 68 270
e 68 248
e 69 820
e 69 498
e 69 910
e 69 390
e 70 140
e 70 798
e 71 777
e 71 240
e 71 981
e 72 593
e 72 95
e 72 414
e 73 414
e 73 865
e 74 293
e 74 742
e 74 78
e 74 165
e 74 921
e 74 426
e 74 956
e 74 361
e 75 873
e 75 92
e 75 351
e 75 120
e 75 568
e 76 357
e 76 279
e 76 566
e 76 89
e 77 982
e 77 312
e 77 732
e 78 142
e 79 866
e 79 931
e 79 371
e 79 153
e 79 141
e 79 640
e 79 85
e 80 931
e 80 113
e 80 344
e 81 675
e 81 894
e 81 202
e 81 498
e 82 587
e 82 607
e 82 798
e 82 970
e 84 260
e 84 832
e 84 678
e 85 978
e 85 283
e 86 551
e 86 756
e 86 626
e 87 915
e 87 356
e 87 752
e 87 982
e 87 671
e 87 130
e 88 180
e 88 203
e 88 931
e 89 990
e 89 201
e 90 472
e 90 242
e 90 984
e 91 568
e 91 550
e 91 993
e 92 402
e 92 356
e 92 580
e 92 314
e 92 476
e 92 877
e 93 804
e 93 488
e 93 260
e 94 645
e 94 285
e 94 328
e 94 246
e 94 902
e 95 105
e 95 789
e 95 894
e 95 718
e 95 651
e 97 212
e 97 333
e 97 938
e 97 493
e 97 742
e 97 226
e 97 842
e 97 430
e 97 578
e 97 362
e 98 613
e 98 216
e 98 505
e 99 191
e 99 205
e 99 287
e 99 976
e 99 794
e 100 706
e 100 459
e 100 347
e 100 262
e 101 116
e 101 327
e 101 488
e 102 670
e 102 467
e 102 859
e 102 919
e 103 265
e 103 470
e 103 145
e 103 946
e 103 408
e 103 965
e 104 831
e 104 431
e 104 819
e 105 818
e 105 919
e 105 873
e 106 588
e 106 617
e 106 138
e 107 391
e 107 286
e 107 832
e 107 963
e 107 253
e 109 609
e 109 401
e 109 962
e 109 581
e 109 687
e 110 142
e 110 755
e 110 931
e 110 324
e 110 190
e 110 476
e 110 483
e 110 626
e 111 628
e 111 420
e 111 140
e 112 363
e 112 614
e 112 910
e 112 826
e 112 411
e 112 149
e 113 449
e 113 334
e 113 394
e 113 821
e 113 314
e 116 481
e 116 843
e 116 354
e 116 883
e 116 670
e 117 411
e 117 590
e 117 853
e 117 394
e 117 586
e 117 495
e 119 843
e 119 659
e 119 505
e 119 321
e 120 621
e 120 681
e 120 853
e 120 717
e 120 328
e 121 316
e 121 146
e 121 608
e 121 634
e 121 879
e 122 578
e 122 273
e 122 498
e 122 318
e 122 847
e 123 865
e 123 935
e 123 202
e 123 356
e 124 194
e 124 663
e 124 701
e 126 205
e 126 206
e 126 128
e 126 524
e 128 782
e 128 393
e 129 422
e 129 944
e 129 498
e 129 954
e 129 613
e 130 745
e 130 296
e 130 638
e 131 361
e 131 828
e 131 889
e 131 726
e 131 609
e 131 407
e 132 731
e 132 220
e 132 212
e 132 223
e 133 202
e 133 594
e 133 545
e 133 896
e 136 984
e 136 713
e 136 386
e 136 718
e 136 228
e 136 706
e 136 662
e 136 484
e 137 703
e 137 399
e 137 290
e 137 935
e 137 831
e 137 542
e 137 185
e 138 280
e 138 232
e 138 142
e 138 673
e 140 517
e 140 452
e 140 651
e 141 390
e 141 960
e 141 798
e 141 483
e 142 371
e 142 243
e 142 333
e 143 376
e 143 717
e 143 225
e 144 509
e 144 929
e 144 969
e 145 594
e 145 712
e 145 607
e 146 592
e 146 587
e 146 851
e 146 927
e 146 299
e 148 684
e 148 799
e 148 772
e 148 722
e 149 892
e 149 538
e 149 991
e 149 794
e 149 746
e 150 548
e 150 454
e 150 696
e 152 402
e 152 670
e 152 745
e 153 921
e 153 571
e 153 706
e 153 684
e 153 426
e 153 807
e 153 879
e 153 576
e 154 590
e 154 249
e 154 790
e 154 596
e 155 742
e 155 165
e 155 367
e 155 375
e 156 607
e 156 370
e 156 638
e 156 657
e 157 848
e 157 634
e 157 324
e 157 596
e 157 738
e 157 316
e 157 379
e 157 528
e 161 988
e 161 420
e 161 435
e 162 957
e 162 999
e 162 509
e 163 657
e 163 422
e 163 312
e 165 925
e 165 666
e 168 410
e 168 498
e 168 761
e 170 265
e 170 896
e 170 253
e 170 929
e 170 628
e 171 769
e 171 279
e 171 751
e 171 476
e 172 902
e 172 718
e 172 297
e 172 493
e 172 544
e 174 260
e 174 696
e 174 858
e 174 298
e 174 255
e 174 751
e 176 733
e 176 817
e 176 703
e 177 197
e 177 438
e 177 339
e 177 854
e 177 185
e 177 489
e 178 474
e 178 637
e 178 550
e 178 644
e 179 212
e 179 266
e 179 960
e 179 467
e 179 839
e 179 712
e 180 951
e 180 930
e 180 566
e 180 860
e 182 515
e 182 188
e 182 898
e 184 254
e 184 971
e 184 703
e 184 267
e 185 273
e 185 701
e 185 544
e 185 296
e 187 841
e 187 435
e 187 970
e 187 545
e 188 923
e 188 827
e 188 866
e 188 775
e 189 229
e 189 575
e 190 439
e 190 666
e 190 273
e 191 854
e 191 612
e 191 687
e 191 905
e 191 508
e 191 670
e 191 779
e 191 790
e 192 825
e 192 318
e 192 775
e 192 476
e 192 269
e 193 215
e 193 1000
e 193 196
e 194 531
e 194 467
e 195 787
e 195 713
e 195 661
e 196 215
e 196 578
e 196 972
e 196 567
e 197 454
e 197 786
e 200 347
e 200 663
e 200 495
e 200 784
e 201 318
e 201 502
e 201 631
e 202 993
e 202 316
e 202 817
e 202 486
e 203 588
e 203 626
e 203 725
e 204 375
e 204 312
e 204 566
e 204 827
e 204 443
e 205 549
e 205 390
e 205 842
e 205 452
e 206 267
e 206 609
e 206 633
e 206 305
e 208 254
e 208 921
e 208 534
e 209 469
e 209 557
e 209 950
e 210 722
e 210 563
e 210 330
e 211 631
e 211 645
e 211 554
e 212 774
e 212 289
e 212 251
e 213 337
e 213 684
e 213 476
e 215 597
e 215 686
e 216 725
e 216 349
e 218 654
e 218 223
e 218 468
e 220 684
e 220 228
e 220 254
e 220 777
e 221 609
e 221 286
e 221 719
e 223 373
e 223 849
e 223 866
e 223 582
e 225 640
e 226 350
e 226 532
e 227 516
e 227 337
e 227 573
e 227 558
e 228 537
e 228 478
e 228 929
e 228 492
e 228 978
e 229 859
e 229 985
e 229 297
e 229 449
e 229 241
e 229 734
e 231 651
e 231 449
e 231 467
e 232 516
e 232 320
e 232 712
e 232 904
e 233 700
e 233 313
e 233 652
e 233 466
e 233 252
e 233 334
e 235 621
e 235 721
e 235 336
e 240 798
e 240 326
e 240 258
e 240 653
e 241 348
e 241 503
e 242 539
e 242 949
e 242 366
e 242 349
e 242 958
e 243 959
e 243 831
e 243 264
e 245 632
e 245 260
e 245 443
e 245 326
e 245 344
e 245 726
e 245 883
e 246 592
e 246 655
e 246 568
e 246 247
e 246 351
e 246 924
e 247 980
e 247 331
e 247 378
e 248 894
e 248 542
e 249 561
e 251 478
e 251 477
e 251 363
e 251 728
e 252 323
e 252 988
e 252 818
e 252 709
e 252 459
e 252 491
e 253 783
e 254 378
e 254 502
e 254 405
e 254 486
e 254 285
e 255 884
e 255 301
e 255 260
e 255 907
e 256 299
e 256 466
e 256 649
e 256 835
e 258 966
e 258 898
e 258 378
e 258 407
e 259 541
e 259 315
e 260 628
e 260 695
e 260 684
e 260 754
e 261 317
e 261 762
e 261 283
e 261 487
e 261 269
e 262 516
e 262 445
e 262 379
e 263 367
e 263 452
e 263 467
e 264 935
e 264 326
e 264 640
e 264 671
e 264 841
e 265 814
e 265 783
e 266 403
e 266 933
e 266 682
e 267 518
e 267 351
e 267 878
e 267 440
e 268 404
e 268 914
e 268 943
e 269 761
e 270 775
e 270 801
e 270 663
e 270 515
e 273 405
e 273 783
e 273 454
e 273 621
e 274 624
e 274 286
e 274 853
e 276 736
e 276 493
e 276 655
e 276 370
e 278 717
e 278 950
e 278 868
e 278 703
e 279 359
e 279 335
e 279 524
e 280 753
e 280 824
e 280 662
e 280 923
e 280 523
e 282 598
e 282 790
e 283 392
e 283 341
e 283 477
e 283 835
e 283 506
e 284 314
e 284 557
e 284 870
e 284 330
e 284 464
e 285 403
e 285 458
e 285 976
e 285 517
e 286 498
e 286 927
e 286 577
e 286 878
e 286 328
e 287 422
e 287 632
e 287 543
e 289 880
e 289 823
e 289 324
e 289 982
e 289 783
e 289 566
e 290 968
e 290 927
e 290 327
e 291 756
e 291 770
e 291 856
e 291 930
e 291 627
e 291 568
e 293 824
e 293 502
e 293 931
e 293 315
e 296 624
e 296 979
e 296 576
e 297 419
e 297 456
e 297 871
e 297 851
e 297 359
e 298 651
e 298 487
e 299 677
e 299 794
e 301 360
e 301 800
e 301 626
e 304 765
e 304 964
e 305 513
e 305 554
e 307 935
e 307 700
e 307 360
e 307 544
e 308 914
e 308 486
e 308 717
e 313 392
e 313 840
e 313 430
e 314 537
e 315 558
e 315 811
e 315 607
e 315 990
e 316 574
e 316 410
e 316 899
e 316 403
e 316 597
e 317 728
e 317 601
e 318 631
e 318 739
e 320 332
e 320 335
e 320 844
e 320 822
e 321 508
e 321 984
e 321 420
e 321 327
e 323 823
e 323 563
e 323 575
e 324 706
e 324 843
e 324 511
e 324 394
e 326 673
e 326 358
e 326 919
e 326 899
e 326 446
e 327 786
e 327 361
e 327 451
e 327 642
e 328 358
e 330 830
e 330 371
e 331 705
e 331 376
e 331 801
e 331 650
e 331 449
e 331 706
e 332 806
e 332 339
e 332 696
e 333 459
e 334 837
e 334 361
e 335 440
e 335 432
e 335 806
e 336 833
e 336 686
e 336 662
e 336 917
e 336 562
e 337 799
e 337 516
e 337 857
e 337 941
e 337 913
e 337 759
e 337 813
e 337 803
e 337 944
e 337 784
e 338 502
e 338 493
e 338 918
e 338 596
e 339 460
e 339 853
e 339 765
e 339 368
e 339 860
e 339 534
e 341 811
e 341 962
e 341 944
e 341 625
e 341 974
e 342 878
e 342 402
e 342 511
e 342 422
e 343 472
e 343 642
e 343 896
e 344 686
e 344 721
e 344 549
e 344 518
e 344 509
e 345 378
e 345 419
e 345 799
e 347 804
e 347 742
e 348 454
e 348 685
e 348 438
e 349 821
e 350 836
e 350 708
e 351 401
e 351 961
e 351 802
e 351 884
e 354 689
e 354 686
e 354 939
e 354 796
e 354 991
e 354 511
e 356 748
e 356 854
e 356 676
e 356 762
e 357 786
e 357 950
e 358 853
e 359 455
e 360 909
e 360 963
e 361 968
e 362 758
e 362 431
e 363 957
e 363 508
e 363 698
e 364 476
e 364 963
e 364 999
e 364 823
e 364 365
e 365 820
e 366 549
e 366 755
e 366 854
e 366 738
e 366 597
e 367 608
e 367 911
e 368 548
e 368 801
e 368 752
e 368 445
e 370 673
e 370 765
e 371 550
e 371 492
e 371 460
e 371 408
e 371 451
e 373 392
e 373 816
e 373 842
e 375 830
e 376 600
e 378 973
e 378 881
e 378 392
e 378 631
e 379 542
e 379 717
e 384 652
e 384 933
e 384 544
e 384 546
e 384 843
e 384 558
e 385 513
e 385 976
e 386 467
e 386 637
e 386 638
e 386 758
e 387 650
e 387 498
e 387 976
e 389 997
e 389 852
e 389 458
e 389 783
e 390 969
e 391 812
e 391 551
e 392 707
e 393 817
e 394 938
e 394 568
e 398 846
e 398 741
e 398 726
e 399 443
e 399 943
e 400 445
e 400 571
e 400 874
e 401 578
e 401 737
e 401 824
e 401 558
e 402 938
e 403 414
e 403 539
e 403 737
e 404 576
e 404 766
e 404 926
e 405 515
e 406 631
e 406 896
e 406 679
e 407 617
e 407 596
e 408 968
e 410 580
e 410 961
e 411 783
e 411 666
e 411 685
e 412 819
e 412 937
e 412 750
e 412 966
e 412 739
e 414 443
e 414 677
e 414 541
e 414 496
e 414 477
e 415 906
e 415 945
e 415 621
e 419 921
e 419 590
e 420 544
e 420 503
e 421 839
e 421 817
e 421 842
e 422 576
e 422 762
e 422 918
e 422 845
e 422 761
e 422 820
e 426 701
e 429 759
e 429 859
e 429 711
e 430 446
e 430 933
e 430 601
e 430 661
e 431 443
e 431 557
e 432 936
e 432 708
e 432 786
e 432 848
e 432 925
e 432 587
e 433 481
e 433 789
e 433 850
e 433 469
e 434 651
e 434 848
e 434 842
e 434 828
e 435 529
e 435 742
e 435 594
e 435 735
e 435 644
e 438 839
e 438 577
e 439 974
e 439 601
e 440 922
e 440 492
e 440 721
e 440 519
e 441 642
e 441 794
e 441 542
e 441 625
e 442 733
e 442 711
e 442 582
e 442 877
e 443 548
e 443 574
e 443 962
e 443 755
e 443 505
e 445 871
e 446 789
e 446 983
e 446 955
e 449 983
e 449 815
e 451 826
e 454 955
e 454 541
e 455 468
e 455 963
e 455 879
e 456 680
e 456 644
e 456 828
e 457 936
e 457 908
e 457 852
e 457 492
e 458 776
e 459 645
e 459 925
e 460 890
e 464 582
e 464 576
e 466 1000
e 466 945
e 466 770
e 467 685
e 467 968
e 467 562
e 467 492
e 468 951
e 468 962
e 469 567
e 469 809
e 469 773
e 469 811
e 470 798
e 471 534
e 471 803
e 471 777
e 471 905
e 472 680
e 472 633
e 474 678
e 474 942
e 474 684
e 476 812
e 476 904
e 477 717
e 477 541
e 478 753
e 478 505
e 478 488
e 481 541
e 481 562
e 481 601
e 483 855
e 483 576
e 483 484
e 483 765
e 484 858
e 484 974
e 486 568
e 486 797
e 487 686
e 487 759
e 488 640
e 489 551
e 489 657
e 489 893
e 489 969
e 490 820
e 490 493
e 490 610
e 490 925
e 491 614
e 491 908
e 492 951
e 492 607
e 492 541
e 493 682
e 493 899
e 495 807
e 495 590
e 495 568
e 495 811
e 495 528
e 495 812
e 496 571
e 496 703
e 496 946
e 497 685
e 497 509
e 497 803
e 498 570
e 498 793
e 500 716
e 500 951
e 500 502
e 500 955
e 502 852
e 502 997
e 502 733
e 503 678
e 505 608
e 505 752
e 505 509
e 505 643
e 506 972
e 506 642
e 508 857
e 509 885
e 511 657
e 511 789
e 512 678
e 512 857
e 512 909
e 512 811
e 515 804
e 515 566
e 515 588
e 516 973
e 516 716
e 517 722
e 518 830
e 519 577
e 519 523
e 523 656
e 524 831
e 526 570
e 526 903
e 526 854
e 526 862
e 528 816
e 528 815
e 528 719
e 529 775
e 529 999
e 531 908
e 531 846
e 531 731
e 531 973
e 532 830
e 532 769
e 532 684
e 534 703
e 534 853
e 535 753
e 535 679
e 535 960
e 535 869
e 535 970
e 537 562
e 537 777
e 537 721
e 538 772
e 538 905
e 538 822
e 539 548
e 539 741
e 541 944
e 542 729
e 543 893
e 543 977
e 543 941
e 543 837
e 543 875
e 544 673
e 544 741
e 544 686
e 544 949
e 545 739
e 545 616
e 546 584
e 546 653
e 548 807
e 548 856
e 549 949
e 550 881
e 550 878
e 551 814
e 551 892
e 554 878
e 557 675
e 557 662
e 557 711
e 557 576
e 558 850
e 558 708
e 559 741
e 559 735
e 559 809
e 561 826
e 561 787
e 562 842
e 562 773
e 563 581
e 563 984
e 563 947
e 563 712
e 563 582
e 566 947
e 566 955
e 567 981
e 567 877
e 570 909
e 570 770
e 570 667
e 571 917
e 571 670
e 573 849
e 573 963
e 573 776
e 574 922
e 574 955
e 575 602
e 576 793
e 576 776
e 578 936
e 578 915
e 580 647
e 581 855
e 581 700
e 582 906
e 582 832
e 584 810
e 585 713
e 585 865
e 585 906
e 585 879
e 586 962
e 587 847
e 588 696
e 588 923
e 588 815
e 588 946
e 588 740
e 591 820
e 592 885
e 593 974
e 593 862
e 593 686
e 595 625
e 595 1000
e 595 653
e 596 836
e 596 955
e 597 992
e 597 824
e 597 980
e 597 869
e 598 738
e 598 649
e 600 922
e 600 902
e 600 668
e 601 736
e 602 844
e 605 623
e 605 649
e 605 944
e 606 783
e 606 947
e 608 823
e 608 650
e 608 659
e 609 927
e 609 626
e 610 666
e 610 820
e 612 919
e 612 662
e 612 925
e 613 767
e 614 848
e 615 886
e 615 673
e 615 939
e 616 691
e 616 659
e 617 968
e 617 713
e 617 949
e 622 732
e 622 944
e 622 710
e 623 827
e 623 643
e 623 784
e 625 956
e 626 918
e 626 645
e 627 926
e 627 974
e 627 914
e 628 859
e 628 910
e 628 833
e 628 802
e 632 838
e 633 705
e 633 748
e 633 759
e 634 972
e 637 709
e 638 807
e 640 772
e 640 729
e 641 1000
e 641 708
e 641 976
e 642 729
e 642 955
e 643 821
e 643 848
e 644 819
e 644 961
e 644 673
e 645 809
e 645 706
e 647 860
e 647 814
e 649 877
e 650 842
e 652 922
e 654 850
e 654 869
e 655 661
e 655 929
e 656 789
e 656 853
e 657 901
e 661 886
e 661 845
e 666 782
e 666 766
e 666 751
e 667 754
e 667 752
e 667 684
e 667 729
e 670 750
e 670 856
e 670 813
e 673 836
e 673 783
e 675 844
e 676 836
e 676 979
e 676 874
e 676 942
e 677 730
e 677 691
e 677 976
e 679 950
e 680 915
e 681 840
e 682 685
e 682 909
e 684 910
e 686 758
e 687 997
e 687 801
e 689 801
e 689 921
e 690 782
e 690 773
e 691 958
e 691 741
e 691 860
e 691 740
e 691 983
e 695 910
e 695 783
e 696 793
e 696 893
e 697 710
e 697 903
e 698 812
e 698 892
e 700 1000
e 700 703
e 700 859
e 700 732
e 700 970
e 701 769
e 701 774
e 703 950
e 703 746
e 705 890
e 705 769
e 706 862
e 706 783
e 708 772
e 709 899
e 710 784
e 712 972
e 713 783
e 713 790
e 716 857
e 716 786
e 716 880
e 717 877
e 717 770
e 719 871
e 721 739
e 721 878
e 722 941
e 725 915
e 726 766
e 728 773
e 729 937
e 729 964
e 730 843
e 730 921
e 732 852
e 732 740
e 734 873
e 734 915
e 735 961
e 736 737
e 736 843
e 737 911
e 737 893
e 738 981
e 739 766
e 740 923
e 741 984
e 745 748
e 746 855
e 746 884
e 746 776
e 750 794
e 750 777
e 751 829
e 752 971
e 752 753
e 753 880
e 754 798
e 754 981
e 755 966
e 755 826
e 755 929
e 756 954
e 758 990
e 758 873
e 759 982
e 759 823
e 761 770
e 761 863
e 761 911
e 761 921
e 765 870
e 766 806
e 767 963
e 767 919
e 770 917
e 770 802
e 772 798
e 774 823
e 775 933
e 775 871
e 776 827
e 779 903
e 779 884
e 784 815
e 787 796
e 787 894
e 793 815
e 794 889
e 796 907
e 797 951
e 798 842
e 799 804
e 800 839
e 800 815
e 802 885
e 803 950
e 804 902
e 806 871
e 807 993
e 810 862
e 810 954
e 812 982
e 813 874
e 813 865
e 813 907
e 815 829
e 815 849
e 815 923
e 816 949
e 816 971
e 817 956
e 818 907
e 819 826
e 819 877
e 820 930
e 820 823
e 821 825
e 822 899
e 824 842
e 824 958
e 825 993
e 825 892
e 827 873
e 831 935
e 831 966
e 832 905
e 833 845
e 835 965
e 837 985
e 837 902
e 837 978
e 838 840
e 838 870
e 841 945
e 842 863
e 844 942
e 845 958
e 845 959
e 847 848
e 847 883
e 847 937
e 848 973
e 850 886
e 851 943
e 853 962
e 853 926
e 854 931
e 855 902
e 856 927
e 858 932
e 863 917
e 863 899
e 865 957
e 866 927
e 866 974
e 868 942
e 874 955
e 875 992
e 875 885
e 877 954
e 878 907
e 880 931
e 880 988
e 880 949
e 880 915
e 881 911
e 881 959
e 883 992
e 885 969
e 889 965
e 890 963
e 890 971
e 893 962
e 893 902
e 894 985
e 898 930
e 901 926
e 904 908
e 907 992
e 909 984
e 911 991
e 915 979
e 918 991
e 918 956
e 918 931
e 922 947
e 924 974
e 929 932
e 932 956
e 935 980
e 936 950
e 937 950
e 937 949
e 939 957
e 941 977
e 949 969
e 950 976
e 965 990
e 969 981
e 972 979
